%%%mzn-stat: initTime=0.00291848
%%%mzn-stat: objective=332
%%%mzn-stat: nodes=605
%%%mzn-stat: restarts=0
%%%mzn-stat: peakDepth=88
%%%mzn-stat: solveTime=0.022855315
%%%mzn-stat: variables=278
%%%mzn-stat: propagators=182
%%%mzn-stat: failures=350
%%%mzn-stat: propagations=42906
%%%mzn-stat: nogoods=350
%%%mzn-stat: AverageConflictSize=3.34
%%%mzn-stat: NumUnitNogoodsLearned=331
%%%mzn-stat: AverageLearnedNogoodLength=1.3
%%%mzn-stat: AverageBacktrackAmount=0
%%%mzn-stat: AverageLbd=1.1571428571428573
%%%mzn-stat-end
maxleg = 332;
succ = array1d(1..20,[10, 12, 14, 3, 16, 7, 5, 20, 17, 6, 18, 1, 9, 2, 8, 11, 19, 13, 15, 4]);
% time elapsed: 1.57 s
----------
==========
% time elapsed: 1.57 s
%%%mzn-stat: initTime=0.00291848
%%%mzn-stat: objective=332
%%%mzn-stat: nodes=605
%%%mzn-stat: restarts=0
%%%mzn-stat: peakDepth=88
%%%mzn-stat: solveTime=0.022857837
%%%mzn-stat: variables=278
%%%mzn-stat: propagators=182
%%%mzn-stat: failures=350
%%%mzn-stat: propagations=42906
%%%mzn-stat: nogoods=350
%%%mzn-stat: AverageConflictSize=3.34
%%%mzn-stat: NumUnitNogoodsLearned=331
%%%mzn-stat: AverageLearnedNogoodLength=1.3
%%%mzn-stat: AverageBacktrackAmount=0
%%%mzn-stat: AverageLbd=1.1571428571428573
%%%mzn-stat-end
